
******************************************************************************
This program contains Ipopt, a library for large-scale nonlinear optimization.
 Ipopt is released as open source code under the Eclipse Public License (EPL).
         For more information visit http://projects.coin-or.org/Ipopt

This version of Ipopt was compiled from source code available at
    https://github.com/IDAES/Ipopt as part of the Institute for the Design of
    Advanced Energy Systems Process Systems Engineering Framework (IDAES PSE
    Framework) Copyright (c) 2018-2019. See https://github.com/IDAES/idaes-pse.

This version of Ipopt was compiled using HSL, a collection of Fortran codes
    for large-scale scientific computation.  All technical papers, sales and
    publicity material resulting from use of the HSL codes within IPOPT must
    contain the following acknowledgement:
        HSL, a collection of Fortran codes for large-scale scientific
        computation. See http://www.hsl.rl.ac.uk.
******************************************************************************

This is Ipopt version 3.13.2, running with linear solver ma27.

Number of nonzeros in equality constraint Jacobian...:     1840
Number of nonzeros in inequality constraint Jacobian.:        0
Number of nonzeros in Lagrangian Hessian.............:     3296

Total number of variables............................:      640
                     variables with only lower bounds:      128
                variables with lower and upper bounds:      448
                     variables with only upper bounds:        0
Total number of equality constraints.................:      632
Total number of inequality constraints...............:        0
        inequality constraints with only lower bounds:        0
   inequality constraints with lower and upper bounds:        0
        inequality constraints with only upper bounds:        0

iter    objective    inf_pr   inf_du lg(mu)  ||d||  lg(rg) alpha_du alpha_pr  ls
   0  0.0000000e+00 8.96e-01 1.95e-13  -1.0 0.00e+00    -  0.00e+00 0.00e+00   0
   1  1.0585252e+02 8.52e-01 1.37e+06  -1.0 1.35e+06    -  9.06e-02 4.72e-02h  2
   2  2.0019896e+02 8.42e-01 4.71e+06  -1.0 5.90e+06    -  8.41e-02 1.27e-02h  4
   3  2.6813061e+02 8.34e-01 3.93e+06  -1.0 3.30e+06    -  7.56e-02 9.45e-03h  5
   4  2.8330412e+02 8.32e-01 3.90e+06  -1.0 3.02e+06    -  9.33e-02 2.44e-03h  7
   5  3.0149523e+02 8.29e-01 3.85e+06  -1.0 4.65e+06    -  8.84e-02 2.79e-03h  7
   6  3.3998210e+02 8.24e-01 9.94e+06  -1.0 3.44e+06  -4.0 8.82e-02 6.82e-03h  5
   7  3.4162361e+02 8.23e-01 9.98e+06  -1.0 1.61e+06  -3.6 1.81e-01 4.02e-04h  9
   8  5.0035882e+02 8.09e-01 1.18e+08  -1.0 3.35e+06  -4.1 1.45e-01 1.67e-02h  4
   9  2.9249143e+03 7.24e-01 2.40e+09  -1.0 3.02e+06  -4.5 1.55e-01 1.15e-01H  1
iter    objective    inf_pr   inf_du lg(mu)  ||d||  lg(rg) alpha_du alpha_pr  ls
  10  2.9247063e+03 7.24e-01 2.40e+09  -1.0 1.43e+06  -2.3 1.58e-01 5.45e-04h  1
  11  2.9803579e+03 7.17e-01 2.37e+09  -1.0 1.18e+06  -2.8 3.71e-01 1.08e-02h  6
  12  3.3072592e+03 7.44e-01 2.85e+09  -1.0 1.29e+06  -3.3 2.53e-03 1.51e-01h  1
  13  3.3239432e+03 7.41e-01 2.84e+09  -1.0 5.63e+05  -2.8 5.10e-01 4.47e-03h  1
  14  3.3772502e+03 7.32e-01 2.81e+09  -1.0 6.49e+05  -3.3 5.19e-01 1.20e-02h  1
  15  3.3769577e+03 7.31e-01 2.81e+09  -1.0 1.48e+06  -2.9 7.33e-04 6.51e-04h  1
  16  4.2983262e+03 7.03e-01 5.47e+09  -1.0 1.58e+07  -3.4 1.63e-04 2.96e-02h  1
  17  4.7059986e+03 5.91e-01 5.33e+09  -1.0 4.40e+06  -2.9 7.17e-03 3.26e-02h  1
  18  4.7070932e+03 5.91e-01 5.33e+09  -1.0 3.92e+05  -1.6 2.42e-04 6.36e-04h  1
  19r 4.7070932e+03 5.91e-01 9.99e+02  -0.2 0.00e+00  -1.2 0.00e+00 3.07e-07R  5
iter    objective    inf_pr   inf_du lg(mu)  ||d||  lg(rg) alpha_du alpha_pr  ls
  20r 4.7069636e+03 5.15e-01 9.96e+02  -0.2 3.86e+03    -  7.58e-03 2.91e-03f  1
  21  4.7243482e+03 5.12e-01 4.86e+02  -1.0 4.81e+05    -  8.04e-02 5.43e-03h  1
  22  5.1917929e+03 4.09e-01 2.47e+05  -1.0 4.90e+05    -  1.48e-01 1.33e-01h  1
  23r 5.1917929e+03 4.09e-01 9.99e+02  -0.4 0.00e+00  -1.6 0.00e+00 2.84e-07R  6
  24r 5.1917412e+03 3.31e-01 9.94e+02  -0.4 1.40e+03    -  1.18e-02 4.31e-03f  1
  25  5.2128047e+03 3.29e-01 1.57e+03  -1.0 3.26e+05    -  3.60e-01 8.16e-03h  1
  26  6.0581602e+03 2.11e-01 9.86e+05  -1.0 4.27e+05    -  4.22e-01 2.65e-01h  1
  27  6.0583339e+03 2.11e-01 9.86e+05  -1.0 2.71e+05  -2.1 6.48e-03 7.99e-05h  1
  28  6.0966309e+03 2.08e-01 1.77e+06  -1.0 2.84e+05  -2.6 5.57e-03 1.59e-02h  1
  29  6.1606700e+03 2.02e-01 3.57e+06  -1.0 3.01e+05  -3.1 5.10e-01 2.68e-02h  1
iter    objective    inf_pr   inf_du lg(mu)  ||d||  lg(rg) alpha_du alpha_pr  ls
  30  6.3242980e+03 2.21e-01 7.75e+06  -1.0 4.44e+05  -3.6 5.83e-02 6.73e-02h  4
  31  7.4460154e+03 1.06e+00 4.19e+08  -1.0 3.02e+05  -3.1 7.00e-01 4.50e-01h  1
  32  7.4473360e+03 1.05e+00 4.16e+08  -1.0 4.35e+05  -3.6 6.59e-01 6.58e-03h  1
  33  7.4474440e+03 1.05e+00 4.16e+08  -1.0 3.48e+05  -3.2 2.43e-01 6.92e-05h  1
  34  7.3373097e+03 9.83e-01 4.00e+08  -1.0 7.83e+05  -3.7 5.02e-04 6.58e-02f  1
  35  7.4371201e+03 9.44e-01 3.92e+08  -1.0 2.94e+05  -2.3 4.26e-06 3.95e-02h  1
  36  7.4235969e+03 9.06e-01 3.78e+08  -1.0 6.51e+05  -2.8 2.44e-02 4.06e-02H  1
  37  7.4334513e+03 8.85e-01 3.70e+08  -1.0 4.30e+05  -3.3 6.71e-01 2.29e-02h  5
  38  6.9246473e+03 1.08e+00 3.24e+08  -1.0 7.09e+05  -3.8 5.46e-01 1.21e-01f  1
  39  6.9212633e+03 1.08e+00 3.23e+08  -1.0 4.56e+05  -3.3 5.85e-01 2.85e-03h  1
iter    objective    inf_pr   inf_du lg(mu)  ||d||  lg(rg) alpha_du alpha_pr  ls
  40  6.9199387e+03 1.08e+00 3.23e+08  -1.0 7.12e+05  -3.8 4.74e-01 1.00e-03h  1
  41  6.9280450e+03 1.03e+00 3.99e+08  -1.0 5.30e+05  -3.4 2.45e-01 4.81e-02h  1
  42  7.2058933e+03 1.01e+00 3.90e+08  -1.0 2.56e+06  -3.9 2.65e-02 2.07e-02h  4
  43  7.2046521e+03 1.01e+00 3.90e+08  -1.0 3.36e+05  -3.4 1.01e-01 3.73e-04H  1
  44  7.5865448e+03 9.79e-01 4.08e+08  -1.0 2.09e+06  -3.9 9.12e-02 2.61e-02h  4
  45  8.6676164e+03 7.03e-01 4.74e+09  -1.0 4.23e+05  -3.5 1.59e-02 2.83e-01h  2
  46  8.8870141e+03 6.30e-01 4.25e+09  -1.0 5.36e+05  -3.1 1.23e-01 1.04e-01h  4
  47  9.0186780e+03 6.18e-01 4.17e+09  -1.0 1.39e+06  -2.6 2.48e-01 1.79e-02h  1
  48  9.0328469e+03 6.08e-01 4.10e+09  -1.0 3.50e+05  -2.2 6.82e-01 1.70e-02h  1
  49  9.6692998e+03 3.07e-01 9.61e+09  -1.0 3.41e+05  -2.7 8.57e-01 4.95e-01h  2
iter    objective    inf_pr   inf_du lg(mu)  ||d||  lg(rg) alpha_du alpha_pr  ls
  50  9.6448472e+03 1.99e-01 7.13e+09  -1.0 6.24e+04  -2.3 2.41e-01 9.90e-01h  1
  51  9.6519218e+03 1.95e-01 6.97e+09  -1.0 5.12e+04  -1.8 2.80e-01 2.25e-02h  5
  52  9.6593427e+03 1.97e-01 6.86e+09  -1.0 1.31e+05  -2.3 2.71e-01 1.55e-02h  7
  53  9.7069787e+03 2.45e-01 5.13e+09  -1.0 5.23e+04  -1.9 1.77e-01 2.60e-01h  1
  54  9.7125924e+03 2.41e-01 5.05e+09  -1.0 5.11e+04  -2.4 6.15e-01 1.55e-02h  7
  55  9.7143113e+03 2.37e-01 4.92e+09  -1.0 2.56e+05  -2.8 3.48e-01 2.46e-02h  6
  56  9.7158040e+03 1.78e-01 3.76e+09  -1.0 8.09e+05  -3.3 6.70e-01 2.47e-01f  3
  57  1.0609251e+04 6.08e-02 1.50e+09  -1.0 2.57e+05  -3.8 1.64e-01 9.90e-01h  1
  58  1.0577626e+04 5.53e-02 1.10e+09  -1.0 6.11e+05  -4.3 1.80e-01 1.24e-01f  4
  59  1.0574123e+04 5.52e-02 1.09e+09  -1.0 5.49e+05  -2.9 4.61e-01 2.05e-03h  1
iter    objective    inf_pr   inf_du lg(mu)  ||d||  lg(rg) alpha_du alpha_pr  ls
  60  1.0353431e+04 5.15e-02 3.73e+09  -1.0 4.98e+05  -2.5 9.91e-01 1.33e-01f  1
  61  1.0360710e+04 5.07e-02 3.67e+09  -1.0 1.21e+05  -3.0 9.65e-01 1.55e-02h  7
  62  1.0089039e+04 1.21e-01 2.65e+09  -1.0 3.58e+05  -3.5 1.50e-01 2.47e-01f  3
  63  1.0271437e+04 1.14e-01 2.46e+09  -1.0 2.25e+05  -3.9 5.87e-01 6.19e-02h  5
  64  1.0323785e+04 1.13e-01 2.45e+09  -1.0 9.53e+05  -4.4 7.07e-02 3.87e-03h  9
  65  1.0344418e+04 1.12e-01 2.42e+09  -1.0 1.25e+05  -4.0 4.16e-01 1.55e-02h  7
  66  1.0352634e+04 1.11e-01 2.41e+09  -1.0 1.82e+05  -4.5 5.98e-02 3.87e-03h  9
  67  1.0679518e+04 2.26e-01 1.08e+09  -1.0 1.11e+05  -4.1 1.00e+00 4.95e-01h  2
  68  9.4767316e+03 1.99e+00 5.46e+08  -1.0 2.43e+05  -4.5 9.88e-01 9.90e-01f  1
  69  1.0503360e+04 2.20e-01 3.09e+08  -1.0 1.15e+05  -5.0 8.53e-01 9.90e-01h  1
iter    objective    inf_pr   inf_du lg(mu)  ||d||  lg(rg) alpha_du alpha_pr  ls
  70  1.0509859e+04 2.07e-01 2.66e+10  -1.0 2.06e+04  -3.7 1.92e-01 6.19e-02h  5
  71  1.0644461e+04 2.14e-01 1.86e+11  -1.0 2.46e+05  -4.2 1.00e+00 2.47e-01h  3
  72  1.2485284e+04 2.00e-01 8.34e+10  -1.0 1.06e+05    -  6.99e-01 9.90e-01h  1
  73  1.2488816e+04 1.88e-01 2.32e+13  -1.0 2.10e+04  -4.6 8.58e-01 6.19e-02h  5
  74  1.2154151e+04 7.01e-02 2.68e+13  -1.0 9.48e+04  -5.1 1.23e-01 9.90e-01f  1
  75  1.2200048e+04 6.22e-02 1.96e+15  -1.0 1.46e+05  -5.6 7.59e-01 1.24e-01h  4
In iteration 75, 32 Slacks too small, adjusting variable bounds
  76  1.2882907e+04 6.07e-02 2.03e+15  -1.0 8.82e+04  -6.1 4.16e-01 9.90e-01h  1
  77  8.2448233e+03 1.89e-01 2.08e+15  -1.0 2.93e+06    -  4.38e-01 1.68e-01f  2
  78  8.7736939e+03 3.76e-01 6.67e+14  -1.0 7.76e+04  -6.5 1.89e-01 1.00e+00h  1
  79  8.3921579e+03 3.72e-01 6.50e+14  -1.0 1.34e+07    -  2.50e-02 1.13e-02f  4
iter    objective    inf_pr   inf_du lg(mu)  ||d||  lg(rg) alpha_du alpha_pr  ls
  80  7.5407693e+03 2.56e-01 6.17e+14  -1.0 1.80e+05    -  5.73e-02 1.00e+00f  1
  81  7.1327036e+03 4.49e+00 2.77e+04  -1.0 3.01e+05    -  1.00e+00 1.00e+00f  1
  82  6.8815926e+03 1.22e+01 3.99e+04  -1.0 9.56e+06    -  9.45e-04 2.78e-03F  1
  83  6.6860998e+03 1.35e+00 8.26e+04  -1.0 2.15e+05  -6.1 1.15e-01 1.00e+00f  1
  84  6.6928278e+03 1.26e+00 7.71e+04  -1.0 6.28e+04  -5.7 1.00e+00 6.68e-02h  3
  85  6.6950892e+03 1.22e+00 7.47e+04  -1.0 6.07e+04  -6.2 7.97e-01 3.12e-02h  6
  86  6.7644493e+03 1.13e+00 8.22e+05  -1.0 7.70e+04  -5.7 1.96e-01 4.60e-01h  1
  87  6.7662632e+03 1.12e+00 7.65e+05  -1.0 5.05e+04  -4.4 1.00e+00 6.68e-02h  1
  88  6.6872479e+03 1.22e+00 7.60e+05  -1.0 1.50e+04  -4.9 3.28e-02 1.00e+00f  1
  89  6.6936046e+03 1.15e+00 7.16e+05  -1.0 5.35e+04  -5.4 7.81e-01 5.82e-02h  1
iter    objective    inf_pr   inf_du lg(mu)  ||d||  lg(rg) alpha_du alpha_pr  ls
  90  6.6978270e+03 1.11e+00 6.94e+05  -1.0 5.39e+04  -5.8 7.60e-02 3.12e-02h  6
  91  6.7017768e+03 1.11e+00 6.92e+05  -1.0 1.71e+05  -6.3 1.00e+00 2.79e-03h  1
  92  6.7077734e+03 1.09e+00 6.81e+05  -1.0 1.43e+05  -6.8 3.89e-02 1.56e-02h  7
  93  6.7508634e+03 1.07e+00 6.38e+05  -1.0 1.40e+05  -6.4 8.51e-01 6.25e-02h  5
  94  6.8615812e+03 9.84e-01 9.41e+04  -1.0 4.02e+04  -6.8 2.81e-01 1.00e+00h  1
  95  6.8209446e+03 6.92e+00 9.11e+14  -1.7 1.92e+05    -  9.71e-01 5.00e-01f  2
  96  6.4830469e+03 1.58e+00 2.00e+13  -1.7 1.15e+05    -  6.37e-01 1.00e+00f  1
  97  6.4869055e+03 1.48e+00 1.96e+13  -1.7 8.37e+04    -  1.90e-02 6.25e-02h  5
  98  5.9638123e+03 3.12e+01 1.95e+13  -1.7 2.17e+05    -  6.31e-03 1.00e+00f  1
  99  5.0512403e+03 1.17e+02 1.57e+13  -1.7 5.56e+05  -6.4 1.94e-01 7.12e-01f  1
iter    objective    inf_pr   inf_du lg(mu)  ||d||  lg(rg) alpha_du alpha_pr  ls
 100  5.0515390e+03 1.17e+02 1.50e+13  -1.7 1.40e+06  -4.2 4.54e-02 1.95e-05H  1
 101  4.9189054e+03 1.13e+02 1.49e+13  -1.7 4.68e+06  -4.7 4.69e-03 3.53e-02f  2
 102  5.0330689e+03 1.13e+02 1.49e+13  -1.7 3.86e+07  -4.2 1.21e-03 6.46e-04h  5
 103  5.3158417e+03 1.02e+02 1.46e+13  -1.7 3.38e+06  -3.8 2.40e-02 1.01e-01h  3
 104  5.3078419e+03 1.02e+02 1.31e+13  -1.7 2.43e+06  -4.3 9.98e-02 3.02e-04f  1
 105  4.7137946e+03 9.92e+01 1.05e+13  -1.7 2.30e+06  -3.9 2.00e-01 2.47e-02f  1
 106  4.1020596e+03 1.53e+02 9.54e+12  -1.7 4.45e+06  -4.3 9.04e-02 9.85e-02f  1
 107  4.2987474e+03 1.47e+02 6.09e+12  -1.7 1.33e+06  -3.0 3.62e-01 4.10e-02h  1
 108  4.4538924e+03 1.44e+02 2.27e+12  -1.7 1.85e+06  -2.6 6.27e-01 1.97e-02h  1
 109  4.7755976e+03 1.43e+02 2.27e+12  -1.7 8.31e+06  -3.1 1.51e-05 9.14e-03h  2
iter    objective    inf_pr   inf_du lg(mu)  ||d||  lg(rg) alpha_du alpha_pr  ls
 110  4.4152697e+03 1.38e+02 2.06e+12  -1.7 1.40e+06  -2.6 9.03e-02 3.63e-02f  1
 111  4.4135274e+03 1.38e+02 1.98e+12  -1.7 1.53e+06  -3.1 4.23e-02 2.32e-04f  1
 112r 4.4135274e+03 1.38e+02 1.00e+03   2.1 0.00e+00  -2.7 0.00e+00 3.06e-07R  5
 113r 4.4135298e+03 4.15e+01 1.02e+03   2.1 1.40e+04    -  1.56e-03 6.88e-03f  1
 114  4.4136331e+03 4.15e+01 2.76e+03  -1.7 2.88e+05    -  5.27e-01 1.90e-04h  1
 115  4.4482847e+03 3.87e+01 1.55e+04  -1.7 5.13e+05    -  4.60e-01 6.62e-02h  1
 116  4.5618445e+03 3.37e+01 1.51e+04  -1.7 5.51e+05    -  5.18e-01 1.31e-01h  1
 117  5.8249965e+03 1.13e+01 4.39e+05  -1.7 2.96e+05    -  5.58e-01 9.90e-01h  1
 118  5.7832592e+03 1.12e+01 4.53e+05  -1.7 2.45e+06    -  8.14e-02 1.26e-02f  1
 119  5.7778263e+03 1.12e+01 4.53e+05  -1.7 2.31e+06    -  1.52e-01 9.67e-04f  1
iter    objective    inf_pr   inf_du lg(mu)  ||d||  lg(rg) alpha_du alpha_pr  ls
 120  5.7308894e+03 1.55e+01 3.00e+05  -1.7 2.30e+06    -  1.87e-03 1.26e-01f  2
 121  5.9953298e+03 1.45e+01 2.81e+05  -1.7 2.71e+06    -  1.05e-04 6.33e-02h  3
 122  5.9047707e+03 1.39e+01 2.68e+05  -1.7 9.23e+06    -  7.79e-04 4.41e-02f  2
 123  5.9056640e+03 1.38e+01 3.42e+05  -1.7 6.03e+05  -3.2 7.21e-01 3.23e-03h  1
 124  6.1515446e+03 1.03e+01 4.32e+07  -1.7 6.00e+05  -3.6 2.67e-01 2.53e-01h  1
 125  6.3321797e+03 9.06e+00 5.86e+07  -1.7 5.16e+05  -3.2 7.45e-01 1.24e-01h  4
 126  6.4124395e+03 7.51e+00 3.87e+07  -1.7 7.11e+05  -3.7 2.08e-03 1.71e-01h  3
 127  6.3757178e+03 7.04e+00 4.41e+07  -1.7 2.53e+06  -4.2 7.16e-02 6.26e-02f  3
 128  6.4712800e+03 6.59e+00 4.24e+07  -1.7 2.88e+05  -3.7 1.80e-01 6.42e-02h  4
 129  6.4246673e+03 6.45e+00 4.15e+07  -1.7 5.11e+05  -4.2 4.16e-01 2.10e-02f  1
iter    objective    inf_pr   inf_du lg(mu)  ||d||  lg(rg) alpha_du alpha_pr  ls
 130  6.4088458e+03 4.86e+00 3.02e+07  -1.7 2.80e+05  -3.8 6.04e-01 2.48e-01f  3
 131  6.4600782e+03 2.45e+00 3.73e+07  -1.7 1.13e+05  -3.4 1.01e-01 4.95e-01h  2
 132  6.5663194e+03 8.40e-01 9.03e+07  -1.7 1.25e+05  -3.8 9.25e-03 9.90e-01h  1
 133  6.5666940e+03 8.39e-01 9.02e+07  -1.7 3.20e+04  -2.5 9.51e-01 1.56e-03h  1
 134  6.5669215e+03 8.38e-01 9.01e+07  -1.7 1.03e+05  -3.0 9.06e-01 8.18e-04h  1
 135  6.7441557e+03 5.22e-01 1.12e+09  -1.7 9.09e+04  -2.6 9.82e-01 3.77e-01h  1
 136  6.7123226e+03 5.23e-03 1.45e+08  -1.7 1.58e+04  -3.0 9.55e-01 9.90e-01f  1
 137  6.7244221e+03 4.45e-04 2.76e+08  -1.7 1.09e+03  -2.6 9.37e-02 9.90e-01h  1
 138  6.7245740e+03 5.61e-06 8.96e+09  -1.7 2.35e+01  -3.1 6.99e-01 9.90e-01h  1
 139  6.7244640e+03 2.82e-06 3.64e+10  -1.7 1.41e+01  -3.6 4.88e-01 4.98e-01f  2
iter    objective    inf_pr   inf_du lg(mu)  ||d||  lg(rg) alpha_du alpha_pr  ls
 140  6.7241310e+03 1.42e-06 5.04e+11  -1.7 4.20e+01  -4.1 5.86e-01 5.00e-01f  2
 141  6.7221309e+03 3.75e-07 6.97e+12  -1.7 1.26e+02  -4.5 4.15e-01 1.00e+00f  1
 142  4.8253103e+03 4.34e+01 6.60e+13  -1.7 1.53e+06    -  5.01e-01 3.52e-01f  1
 143  4.8231768e+03 4.31e+01 2.99e+14  -1.7 2.65e+05  -5.0 1.00e+00 7.74e-03h  1
 144  4.8374245e+03 2.77e+01 1.93e+14  -1.7 2.60e+05  -5.5 1.00e+00 3.57e-01h  1
 145  4.8372271e+03 2.77e+01 1.93e+14  -1.7 1.71e+05  -5.1 3.58e-01 4.17e-04f  1
 146  4.8073900e+03 2.50e+01 1.74e+14  -1.7 1.90e+05  -5.5 1.17e-02 9.72e-02f  1
 147  4.8073308e+03 2.50e+01 1.74e+14  -1.7 2.16e+05  -5.1 5.07e-02 7.83e-05h  1
 148  4.6901100e+03 2.11e+01 1.46e+14  -1.7 2.52e+05  -5.6 8.05e-04 1.58e-01f  1
 149  5.1313219e+03 8.53e+00 5.93e+13  -1.7 4.24e+05  -6.1 1.25e-05 5.95e-01h  1
iter    objective    inf_pr   inf_du lg(mu)  ||d||  lg(rg) alpha_du alpha_pr  ls
 150  4.0795615e+03 6.18e-01 4.95e+05  -1.7 3.71e+05  -5.6 3.67e-01 1.00e+00f  1
 151  4.0336372e+03 7.80e-01 3.96e+05  -1.7 1.15e+05  -5.2 7.15e-01 2.44e-01f  1
 152  3.9764159e+03 7.54e-01 3.76e+05  -1.7 9.03e+04  -5.7 9.01e-01 1.00e+00f  1
 153  3.9766417e+03 7.89e-01 2.80e+05  -1.7 7.01e+04  -5.3 1.00e+00 2.50e-01h  3
 154  3.9817492e+03 7.05e-01 4.19e+04  -1.7 2.70e+04  -5.7 8.05e-01 1.00e+00h  1
 155  3.9775237e+03 1.15e+00 2.57e+04  -1.7 6.67e+04  -6.2 3.65e-01 5.00e-01f  2
 156  3.9734558e+03 3.17e-01 1.10e+04  -1.7 7.73e+03  -5.8 4.41e-01 1.00e+00f  1
 157  3.9586911e+03 7.63e-01 1.97e+03  -1.7 2.98e+04  -6.3 5.83e-01 1.00e+00f  1
 158  3.9532790e+03 4.83e-03 4.81e+03  -1.7 6.48e+03  -5.8 4.61e-01 1.00e+00f  1
 159  3.9197377e+03 4.09e-03 2.30e+14  -3.8 3.65e+03  -6.3 5.20e-01 1.00e+00f  1
iter    objective    inf_pr   inf_du lg(mu)  ||d||  lg(rg) alpha_du alpha_pr  ls
 160  2.5726320e+03 1.49e-01 2.29e+14  -3.8 2.92e+05    -  5.64e-03 1.00e+00f  1
 161  2.5850954e+03 2.62e-02 5.98e+13  -3.8 6.53e+04    -  7.38e-01 1.00e+00h  1
 162  2.5663103e+03 2.69e-03 6.64e+00  -3.8 6.53e+03    -  1.00e+00 1.00e+00f  1
 163  2.5667770e+03 3.69e-05 8.64e-01  -3.8 2.58e+02    -  1.00e+00 1.00e+00h  1
 164  2.5667814e+03 8.99e-07 2.09e-02  -5.7 3.76e+00    -  1.00e+00 1.00e+00h  1
 165  2.5667815e+03 4.67e-09 1.30e-05  -8.6 9.14e-02    -  1.00e+00 1.00e+00h  1

Number of Iterations....: 165

                                   (scaled)                 (unscaled)
Objective...............:   2.5667815236660158e+03    2.5667815236660158e+03
Dual infeasibility......:   1.2968402651450771e-05    1.2968402651450771e-05
Constraint violation....:   4.6720831647917294e-09    4.6720831647917294e-09
Complementarity.........:   2.5111279903759715e-09    2.5111279903759715e-09
Overall NLP error.......:   4.6720831647917294e-09    1.2968402651450771e-05


Number of objective function evaluations             = 448
Number of objective gradient evaluations             = 166
Number of equality constraint evaluations            = 448
Number of inequality constraint evaluations          = 0
Number of equality constraint Jacobian evaluations   = 169
Number of inequality constraint Jacobian evaluations = 0
Number of Lagrangian Hessian evaluations             = 165
Total CPU secs in IPOPT (w/o function evaluations)   =      0.407
Total CPU secs in NLP function evaluations           =      5.273

EXIT: Optimal Solution Found.
